 $CONTRL SCFTYP=RHF RUNTYP=ENERGY ISPHER=1 $END
 $SYSTEM timlim=1000 $END
 $BASIS  GBASIS=CCD $END
 $DATA
  check the data
 C1
 C   6    0.00000000    0.00000000   -0.13375000
 H   1    0.00000000    0.86110687    0.56493031
 H   1    0.00000000   -0.86110687    0.56493031
 $END

