 $CONTRL SCFTYP=RHF RUNTYP=ENERGY ISPHER=0 NPRINT = 4 $END
 $SYSTEM timlim=1000 $END
 $BASIS  GBASIS=N31 NGAUSS=6 $END
 $DATA
  check the data
 C1
 H   1    0.00000000    0.0    0.375
 H   1    0.00000000    0.0   -0.375
 $END

