%nproc=4
%mem = 10GB
%chk = geom-qz.chk
#p HF cc-pvqz nosym pop=full

geom

0 1 
C                  0.00000000    0.00000000   -0.13375000
H                  0.00000000    0.86110687    0.56493031
H                  0.00000000   -0.86110687    0.56493031

